c description: Random 3-CNF over 26 variables and 111 clauses
c generator: CNFgen (0.9.2)
c copyright: (C) 2012-2022 Massimo Lauria <massimo.lauria@uniroma1.it>
c url: https://massimolauria.net/cnfgen
c command line: cnfgen --output CNF_4.28/26_bit_111_300.cnf randkcnf 3 26 111
c
p cnf 26 111
4 21 22 0
3 20 -23 0
7 14 -15 0
9 -20 25 0
3 14 -26 0
5 10 24 0
2 12 -19 0
14 -19 -22 0
1 3 -26 0
4 16 25 0
6 14 26 0
9 19 -21 0
2 -18 -20 0
-11 -22 -23 0
10 16 -24 0
4 -17 -23 0
2 -5 8 0
3 7 -8 0
1 2 -5 0
-11 -14 -18 0
-3 14 -15 0
13 -15 -26 0
-3 11 17 0
-1 6 -20 0
17 -24 25 0
-13 -21 26 0
-19 20 -23 0
-5 -17 -26 0
-3 -11 -20 0
-3 -4 -23 0
2 -8 24 0
-8 16 -25 0
-1 -3 9 0
6 -14 -23 0
1 -4 -19 0
6 -8 -18 0
10 11 -25 0
4 -11 -12 0
-2 -6 -14 0
16 18 -20 0
7 -12 -24 0
6 -12 -15 0
-20 23 24 0
-11 -24 -25 0
-7 18 -25 0
-3 -7 8 0
-3 -8 -15 0
2 9 19 0
-4 -5 -15 0
3 24 25 0
9 12 -19 0
-9 -20 -23 0
-2 -4 -10 0
-1 -6 -19 0
2 21 22 0
-5 6 -17 0
3 18 24 0
-1 8 26 0
2 10 -15 0
-10 15 26 0
6 12 16 0
-8 12 18 0
-2 -21 22 0
-1 3 -4 0
6 11 25 0
7 19 22 0
-2 11 19 0
5 22 23 0
11 -24 -26 0
-4 -13 -17 0
-2 -4 -7 0
3 -14 -23 0
1 -2 -3 0
-17 18 20 0
-10 15 20 0
12 19 -26 0
-3 8 -19 0
4 10 12 0
-3 13 -14 0
5 -18 -21 0
-6 -9 21 0
-6 -13 19 0
-1 -6 22 0
10 -16 23 0
10 20 24 0
11 -15 26 0
-8 15 -16 0
1 9 -19 0
-6 -16 19 0
11 22 -26 0
-11 -20 23 0
5 -8 18 0
-10 -23 -24 0
11 -24 25 0
17 19 22 0
-14 -20 21 0
2 -9 22 0
-6 -11 23 0
-12 13 25 0
8 -16 25 0
3 -13 22 0
1 6 8 0
-10 -14 -16 0
4 5 9 0
2 -18 25 0
-1 3 -11 0
-1 11 22 0
-5 -22 24 0
14 -18 -19 0
5 14 -16 0
-6 -20 22 0
